NAME : amz1312.126853_126853.tour
COMMENT : Cost = 126853_126853
COMMENT : Found by LKH-AMZ [Keld Helsgaun] Sun May 11 14:50:35 2025
COMMENT : TW viol.: 0 #: 0
TYPE : TOUR
DIMENSION : 141
TOUR_SECTION
91
113
35
122
114
21
39
71
119
7
131
112
135
61
48
22
117
65
18
94
95
80
108
36
99
42
75
28
11
82
60
90
9
120
55
130
34
54
8
44
62
126
129
13
73
87
138
2
85
84
1
24
30
40
124
101
132
77
79
37
104
27
81
41
125
3
15
92
47
14
109
93
56
140
127
53
76
10
115
51
33
141
105
123
118
31
100
96
111
20
139
128
16
46
50
121
63
68
72
25
134
64
19
45
6
49
5
116
136
98
57
88
12
67
4
110
89
59
103
58
38
32
137
74
102
133
52
78
29
69
70
26
86
66
83
23
17
106
43
107
97
-1
EOF
